min:x1+x2+x3+x5+x6+x7+x8+x9+x10+x11+x13+x14+x15+x16+x17+x18+x19+x20+x21+x22+x23+x24+x25+x26+x27+x28+x29+x30;
    A1+B1=1;
    A2+B2=1;
    A3+B3=1;
    A4+B4=1;
    A5+B5=1;
    A6+B6=1;
    A7+B7=1;
    A8+B8=1;
    A9+B9=1;
    A10+B10=1;
    A11+B11=1;
    A12+B12=1;
    A13+B13=1;
    A14+B14=1;
    A15+B15=1;
    A16+B16=1;
    A17+B17=1;
    A18+B18=1;
    A19+B19=1;
    A20+B20=1;
    A21+B21=1;
    A22+B22=1;
    A23+B23=1;
    A24+B24=1;
    A25+B25=1;
    A26+B26=1;
    A27+B27=1;
    A28+B28=1;
    A29+B29=1;
    A30+B30=1;
    A31+B31=1;
    A32+B32=1;
    A33+B33=1;
    A34+B34=1;
    A35+B35=1;
    A36+B36=1;
    A37+B37=1;
    A38+B38=1;
    A39+B39=1;
    A40+B40=1;
    A41+B41=1;
    A42+B42=1;
    A1+A2+A3+3 x1>=3;
    A4+1 x2>=1;
    A5+A6+2 x3>=2;

    A7+A8+A9+A10+2 x5>=2;
    A11+1 x6>=1;
    A12+A13+2 x7>=2;
    A14+A15+2 x8>=2;
    A16+A17+2 x9>=2;
    A18+A19+1 x10>=1;
    A20+A21+A22+A23+A24+3 x11>=3;

    B14+A25+A26+3 x13>=3;
    B5+B16+A27+A28+A29+A30+A31+5 x14>=5;
    B1+B4+B7+1 x15>=1;
    A32+A33+2 x16>=2;
    B11+B20+B25+3 x17>=3;
    B12+A34+1 x18>=1;
    B13+B21+B32+1 x19>=1;
    B8+1 x20>=1;
    B18+B22+B26+B33+4 x21>=4;
    B23+A35+A36+3 x22>=3;
    B9+B24+A37+3 x23>=3;
    B2+B19+B27+B35+A38+A39+6 x24>=6;
    B6+B17+2 x25>=2;
    B28+B37+B38+A40+A41+A42+2 x26>=2;
    B29+B40+1 x27>=1;
    B10+B30+2 x28>=2;
    B3+B15+B41+2 x29>=2;
    B31+B34+B36+B39+B42+3 x30>=3;
bin A1,B1,A2,B2,A3,B3,A4,B4,A5,B5,A6,B6,A7,B7,A8,B8,A9,B9,A10,B10,A11,B11,A12,B12,A13,B13,A14,B14,A15,B15,A16,B16,A17,B17,A18,B18,A19,B19,A20,B20,A21,B21,A22,B22,A23,B23,A24,B24,A25,B25,A26,B26,A27,B27,A28,B28,A29,B29,A30,B30,A31,B31,A32,B32,A33,B33,A34,B34,A35,B35,A36,B36,A37,B37,A38,B38,A39,B39,A40,B40,A41,B41,A42,B42,x1,x2,x3,x5,x6,x7,x8,x9,x10,x11,x13,x14,x15,x16,x17,x18,x19,x20,x21,x22,x23,x24,x25,x26,x27,x28,x29,x30;